job_count = 28 ;
duration = [|8, 24, 5|10, 15, 13|12, 17, 8|5, 8, 7|13, 7, 9|12, 7, 12|2, 11, 16|17, 13, 4|2, 11, 15|15, 18, 14|2, 24, 5|2, 3, 18|3, 2, 4|18, 3, 12|9, 4, 3|12, 8, 3|3, 3, 2|12, 2, 10|4, 13, 4|12, 17, 14|3, 12, 14|6, 18, 3|8, 18, 3|4, 24, 5|6, 22, 6|17, 20, 10|14, 13, 7|19, 7, 13|] ;
machine_count = 3 ;
cost = [|22, 39, 47|18, 22, 42|33, 34, 59|11, 27, 38|29, 44, 33|20, 41, 53|22, 28, 40|37, 31, 44|29, 42, 56|39, 47, 44|27, 26, 39|25, 49, 30|21, 43, 39|38, 21, 55|17, 20, 50|36, 37, 56|21, 48, 52|33, 36, 48|27, 21, 59|39, 49, 33|36, 36, 34|39, 42, 51|27, 22, 55|16, 42, 56|37, 33, 34|26, 30, 35|35, 35, 30|17, 26, 42|] ;
deadline = [82, 70, 40, 59, 51, 54, 25, 83, 26, 65, 51, 50, 27, 69, 36, 81, 83, 57, 92, 60, 82, 90, 68, 54, 86, 30, 51, 73] ;
release = [0, 0, 0, 0, 0, 0, 0, 0, 0, 0, 0, 0, 0, 0, 0, 0, 0, 0, 0, 0, 0, 0, 0, 0, 0, 0, 0, 0] ;
resource = [|9, 9, 9|8, 8, 8|8, 8, 8|7, 7, 7|1, 1, 1|7, 7, 7|7, 7, 7|3, 3, 3|2, 2, 2|2, 2, 2|7, 7, 7|5, 5, 5|6, 6, 6|4, 4, 4|4, 4, 4|4, 4, 4|3, 3, 3|3, 3, 3|5, 5, 5|1, 1, 1|7, 7, 7|3, 3, 3|2, 2, 2|2, 2, 2|5, 5, 5|9, 9, 9|2, 2, 2|9, 9, 9|] ;
capacities = [10, 10, 10] ;
